certificates/rado_a6_c178_N30.cnf
c Rad2 upper bound instance: x1 + 6*x2 - x3 = 178, interval [1,30]
p cnf 30 196
1 3 30 0
-1 -3 -30 0
2 4 30 0
-2 -4 -30 0
3 5 30 0
-3 -5 -30 0
4 6 30 0
-4 -6 -30 0
1 5 29 0
-1 -5 -29 0
5 7 30 0
-5 -7 -30 0
2 6 29 0
-2 -6 -29 0
6 8 30 0
-6 -8 -30 0
3 7 29 0
-3 -7 -29 0
7 9 30 0
-7 -9 -30 0
4 8 29 0
-4 -8 -29 0
8 10 30 0
-8 -10 -30 0
5 9 29 0
-5 -9 -29 0
9 11 30 0
-9 -11 -30 0
6 10 29 0
-6 -10 -29 0
10 12 30 0
-10 -12 -30 0
1 11 28 0
-1 -11 -28 0
7 11 29 0
-7 -11 -29 0
11 13 30 0
-11 -13 -30 0
2 12 28 0
-2 -12 -28 0
8 12 29 0
-8 -12 -29 0
12 14 30 0
-12 -14 -30 0
3 13 28 0
-3 -13 -28 0
9 13 29 0
-9 -13 -29 0
13 15 30 0
-13 -15 -30 0
4 14 28 0
-4 -14 -28 0
10 14 29 0
-10 -14 -29 0
14 16 30 0
-14 -16 -30 0
5 15 28 0
-5 -15 -28 0
11 15 29 0
-11 -15 -29 0
15 17 30 0
-15 -17 -30 0
6 16 28 0
-6 -16 -28 0
12 16 29 0
-12 -16 -29 0
16 18 30 0
-16 -18 -30 0
1 17 27 0
-1 -17 -27 0
7 17 28 0
-7 -17 -28 0
13 17 29 0
-13 -17 -29 0
17 19 30 0
-17 -19 -30 0
2 18 27 0
-2 -18 -27 0
8 18 28 0
-8 -18 -28 0
14 18 29 0
-14 -18 -29 0
18 20 30 0
-18 -20 -30 0
3 19 27 0
-3 -19 -27 0
9 19 28 0
-9 -19 -28 0
15 19 29 0
-15 -19 -29 0
19 21 30 0
-19 -21 -30 0
4 20 27 0
-4 -20 -27 0
10 20 28 0
-10 -20 -28 0
16 20 29 0
-16 -20 -29 0
20 22 30 0
-20 -22 -30 0
5 21 27 0
-5 -21 -27 0
11 21 28 0
-11 -21 -28 0
17 21 29 0
-17 -21 -29 0
21 23 30 0
-21 -23 -30 0
6 22 27 0
-6 -22 -27 0
12 22 28 0
-12 -22 -28 0
18 22 29 0
-18 -22 -29 0
22 24 30 0
-22 -24 -30 0
1 23 26 0
-1 -23 -26 0
7 23 27 0
-7 -23 -27 0
13 23 28 0
-13 -23 -28 0
19 23 29 0
-19 -23 -29 0
23 25 30 0
-23 -25 -30 0
2 24 26 0
-2 -24 -26 0
8 24 27 0
-8 -24 -27 0
14 24 28 0
-14 -24 -28 0
20 24 29 0
-20 -24 -29 0
24 26 30 0
-24 -26 -30 0
3 25 26 0
-3 -25 -26 0
9 25 27 0
-9 -25 -27 0
15 25 28 0
-15 -25 -28 0
21 25 29 0
-21 -25 -29 0
25 27 30 0
-25 -27 -30 0
4 26 0
-4 -26 0
10 26 27 0
-10 -26 -27 0
16 26 28 0
-16 -26 -28 0
22 26 29 0
-22 -26 -29 0
26 28 30 0
-26 -28 -30 0
5 26 27 0
-5 -26 -27 0
11 27 0
-11 -27 0
17 27 28 0
-17 -27 -28 0
23 27 29 0
-23 -27 -29 0
27 29 30 0
-27 -29 -30 0
6 26 28 0
-6 -26 -28 0
12 27 28 0
-12 -27 -28 0
18 28 0
-18 -28 0
24 28 29 0
-24 -28 -29 0
28 30 0
-28 -30 0
1 25 29 0
-1 -25 -29 0
7 26 29 0
-7 -26 -29 0
13 27 29 0
-13 -27 -29 0
19 28 29 0
-19 -28 -29 0
25 29 0
-25 -29 0
2 25 30 0
-2 -25 -30 0
8 26 30 0
-8 -26 -30 0
14 27 30 0
-14 -27 -30 0
20 28 30 0
-20 -28 -30 0
26 29 30 0
-26 -29 -30 0
