certificates/rado_a6_c178_N30.drat
-30 0
28 0
-18 0
16 0
20 0
-6 0
-26 0
-10 0
-29 0
4 0
8 0
0
